c turning on binary mode checking
c parsing input formula with 259840 variables and 1039924 clauses
c finished parsing, read 69043630 bytes from proof file
c detected empty clause; start verification via backward checking
c 126293 of 1039924 clauses in core                            
c 290940 of 1104443 lemmas in core using 8799127 resolution steps
c 0 RAT lemmas in core; 99752 redundant literals in core lemmas
s VERIFIED
c verification time: 42.616 seconds
